\ Model Quadratic Optimizer
\ LP format - for model browsing. Use MPS format to capture full model detail.
Minimize
  - 2.86 x[0] - 3.98 x[1] - 4.2 x[2] - 4.2 x[3] - 3.54 x[4] - 2.9 x[5]
   - 2.2 x[6] - 2.7 x[7] + 2.47 Constant + [ 3.08 x[0] ^2
   + 5.52 x[0] * x[1] + 4.96 x[0] * x[2] + 4.52 x[0] * x[3]
   + 3.52 x[0] * x[4] + 5 x[0] * x[5] + 2.68 x[0] * x[6] + 2.92 x[0] * x[7]
   + 3.62 x[1] ^2 + 6.12 x[1] * x[2] + 5.92 x[1] * x[3] + 4.68 x[1] * x[4]
   + 4.52 x[1] * x[5] + 3.36 x[1] * x[6] + 4.76 x[1] * x[7] + 4.28 x[2] ^2
   + 8.72 x[2] * x[3] + 7.4 x[2] * x[4] + 6.12 x[2] * x[5] + 4 x[2] * x[6]
   + 3.4 x[2] * x[7] + 4.82 x[3] ^2 + 8.64 x[3] * x[4] + 6.92 x[3] * x[5]
   + 4.68 x[3] * x[6] + 3.56 x[3] * x[7] + 4.1 x[4] ^2 + 6.44 x[4] * x[5]
   + 4.48 x[4] * x[6] + 3.24 x[4] * x[7] + 3.32 x[5] ^2 + 3.88 x[5] * x[6]
   + 2.56 x[5] * x[7] + 1.38 x[6] ^2 + 2.52 x[6] * x[7] + 2.06 x[7] ^2
   ] / 2 
Subject To
Bounds
 Constant = 1
End
